============================[ Problem Statistics ]=============================
|                                                                             |
|  Number of variables:          1226                                         |
|  Number of clauses:            6452                                         |
|  Parse time:                   0.00 s                                       |
|  Simplification time:          0.00 s                                       |
|                                                                             |
============================[ Search Statistics ]==============================
| Conflicts |          ORIGINAL         |          LEARNT          | Progress |
|           |    Vars  Clauses Literals |    Limit  Clauses Lit/Cl |          |
===============================================================================
|       100 |    1226     6452    19356 |     2365      100      8 |  0.000 % |
|       250 |    1226     6452    19356 |     2602      250     14 |  0.000 % |
|       475 |    1226     6452    19356 |     2862      475     19 |  0.000 % |
|       812 |    1226     6452    19356 |     3148      812     18 |  0.000 % |
|      1318 |    1226     6452    19356 |     3463     1318     19 |  0.000 % |
|      2077 |    1226     6452    19356 |     3810     2077     22 |  0.000 % |
|      3216 |    1226     6452    19356 |     4191     3216     27 |  0.000 % |
|      4924 |    1226     6452    19356 |     4610     2749     27 |  0.000 % |
|      7486 |    1226     6452    19356 |     5071     2915     30 |  0.000 % |
|     11330 |    1226     6452    19356 |     5578     4179     29 |  0.000 % |
|     17096 |    1226     6452    19356 |     6136     4189     42 |  0.000 % |
|     25745 |    1226     6452    19356 |     6749     3295     29 |  0.000 % |
|     38719 |    1226     6452    19356 |     7424     5870     43 |  0.000 % |
|     58180 |    1226     6452    19356 |     8167     6295     27 |  0.000 % |
|     87372 |    1226     6452    19356 |     8983     6473     44 |  0.000 % |
|    131161 |    1226     6452    19356 |     9882     8988     33 |  0.000 % |
|    196845 |    1226     6452    19356 |    10870     9494     44 |  0.000 % |
|    295371 |    1226     6452    19356 |    11957     8651     33 |  0.000 % |
|    443160 |    1226     6452    19356 |    13153    10916     52 |  0.000 % |
|    664843 |    1226     6452    19356 |    14468    12839     43 |  0.000 % |
|    997368 |    1226     6452    19356 |    15915     8522     53 |  0.000 % |
|   1496156 |    1226     6452    19356 |    17507     9174     31 |  0.000 % |
|   2244338 |    1226     6452    19356 |    19257    14828     57 |  0.000 % |
|   3366612 |    1226     6452    19356 |    21183    10636     32 |  0.000 % |
|   5050023 |    1226     6452    19356 |    23301    17507     53 |  0.000 % |
|   7575139 |    1226     6452    19356 |    25632    22962     59 |  0.000 % |
|  11362814 |    1226     6452    19356 |    28195    25732     62 |  0.000 % |
|  17044326 |    1226     6452    19356 |    31014    19418     54 |  0.000 % |
|  25566595 |    1226     6452    19356 |    34116    18064     58 |  0.000 % |
|  38349998 |    1226     6452    19356 |    37527    26907     51 |  0.000 % |
|  57525103 |    1226     6452    19356 |    41280    19984     53 |  0.000 % |
|  86287761 |    1226     6452    19356 |    45408    15365     34 |  0.000 % |
| 129431749 |    1226     6452    19356 |    49949    34815     61 |  0.000 % |
| 194147731 |    1226     6452    19356 |    54944    40788     46 |  0.000 % |
===============================================================================
restarts              : 245755
conflicts             : 199022470      (9179 /sec)
decisions             : 384078647      (0.00 % random) (17715 /sec)
propagations          : 21687371442    (1000272 /sec)
conflict literals     : 10581492993    (22.05 % deleted)
CPU time              : 21681.5 s

SATISFIABLE
